p tw 38 41
1 2
2 13
3 4
4 5
5 6
6 7
7 8
8 9
9 10
10 11
11 12
12 14
13 24
14 15
14 16
15 16
15 22
16 17
17 18
18 19
19 20
20 21
21 22
22 23
23 25
24 33
24 36
25 26
26 27
27 28
28 29
29 30
29 4
30 31
31 32
33 34
34 35
35 31
36 37
37 38
38 3
